row=7;
Board=[|4,6,5,0,0,0,0,0,2,1|0,0,4,6,1,0,5,8,7,3|8,9,0,10,0,0,0,4,0,0|10,3,2,8,0,6,7,0,1,0|0,0,0,3,0,0,8,5,0,0|8,0,0,7,0,0,1,0,0,0|6,10,0,3,4,0,0,0,1,9|];
bottom=[153600,38880,11520,272160,22400,27216,42000,302400,2940,19440]